webassembly/ejemplos_dzn/10/folder10_json_34.dzn
TERM = { '.', 's(2)', 's(5)', 's(4)', 'in_1', 'local_0', 'local_1', 'in_2', 'in_4', 'in_3', 's(1)', 's(0)', 'in_5', 's(3)', 'in_0'};
null = '.';
s = 10;
n = 12;
ndeps = 5;
max_registers_sz = 4;
NR = 1;
registers = [|'local_0', 's(1)'|];
dependencies = [|'i32.load_1', 'i32.store_6', |'i32.store_6', 'i32.store16_7', |'i32.load8_u_2', 'i32.store_6', |'i32.load8_s_4', 'i32.store_6', |'i32.load8_s_5', 'i32.store_6'|];
GET_ENUM = { GET1, GET2, GET3, GET4, GET5};
SET_ENUM = { SET1, SET2, SET3, SET4, SET5};
TEE_ENUM = { TEE1, TEE2, TEE3, TEE4, TEE5};
N = 9;
OP = { 'i32.add_0', 'i32.const_0', 'i32.load_1', 'i32.load8_u_2', 'i32.load8_s_4', 'i32.load8_s_5', 'i32.store_6', 'i32.store16_7', 'local.get_0' };
in_ops = [2, 0, 1, 1, 1, 1, 2, 2, 0 ];
out_ops = [1, 1, 1, 1, 1, 1, 0, 0, 1 ];
in1 = ['in_4', '.', 's(5)', 's(0)', 'in_0', 's(2)', 's(3)', 'in_2', '.' ];
in2 = ['in_5', '.', '.', '.', '.', '.', 'in_1', 'in_3', '.' ];
in3 = ['.', '.', '.', '.', '.', '.', '.', '.', '.' ];
out1 = ['s(4)', 's(5)', 's(0)', 's(1)', 's(2)', 's(3)', '.', '.', 'local_1' ];
out2 = ['.', '.', '.', '.', '.', '.', '.', '.', '.' ];
out3 = ['.', '.', '.', '.', '.', '.', '.', '.', '.' ];
comm = [true, false, false, false, false, false, false, false, false ];
gas = [1, 1, 1, 1, 1, 1, 1, 1, 1 ];
sz = [1, 1, 1, 1, 1, 1, 1, 1, 1 ];
stor = [false, false, false, false, false, false, true, true, false ];
lb = [ 1, 1, 1, 1, 1, 1, 1, 1, 1 ];
ub = [ 10, 10, 10, 10, 10, 10, 10, 10, 10 ];
startstack = [ 'in_0', 'in_1', 'in_2', 'in_3', 'in_4', 'in_5', null, null, null, null, null, null ];
endstack = [ 'local_1', 's(4)', null, null, null, null, null, null, null, null, null, null ];
